NAME: usa115475
TYPE: TSP
COMMENT: 115,474 towns and cities in the United States
COMMENT: Created July 7, 2012, www.math.uwaterloo/tsp/data/usa/
DIMENSION: 10
EDGE_WEIGHT_TYPE: EUC_2D
NODE_COORD_SECTION
1 33613.158800 86118.306100
11000 36906.897200 121631.611800
22000 34220.936200 83845.732500
33000 37001.176800 94740.503300
44000 44630.341200 69829.496800
55000 34286.496900 89671.752600
66000 41089.541300 74517.102400
77000 40665.883500 84084.946400
88000 33843.779900 79133.096300
99000 30924.355900 96204.404100
